p edge 407
e 0 206
e 0 299
e 0 378
e 0 393
e 1 2
e 1 10
e 1 378
e 1 393
e 2 3
e 2 10
e 2 367
e 2 378
e 3 366
e 3 367
e 3 373
e 3 378
e 4 210
e 4 292
e 4 375
e 5 213
e 5 292
e 5 301
e 5 369
e 5 375
e 6 119
e 6 148
e 6 154
e 6 210
e 6 294
e 6 295
e 7 10
e 7 380
e 7 381
e 8 115
e 8 365
e 8 367
e 8 390
e 9 289
e 9 305
e 9 313
e 9 364
e 9 368
e 9 370
e 9 377
e 10 115
e 10 116
e 10 117
e 10 299
e 10 365
e 10 367
e 10 380
e 10 381
e 10 387
e 10 393
e 11 12
e 11 22
e 11 24
e 11 87
e 11 193
e 11 220
e 12 13
e 12 24
e 12 188
e 12 193
e 12 201
e 13 14
e 13 22
e 13 174
e 13 193
e 14 15
e 14 22
e 14 174
e 14 187
e 14 340
e 15 16
e 15 22
e 15 25
e 15 187
e 15 192
e 16 187
e 16 192
e 16 196
e 17 18
e 17 21
e 17 26
e 17 200
e 18 24
e 18 191
e 18 220
e 18 223
e 19 219
e 19 221
e 19 222
e 19 223
e 20 26
e 20 190
e 20 191
e 20 325
e 21 26
e 21 200
e 21 339
e 21 341
e 22 25
e 22 87
e 22 88
e 22 193
e 22 324
e 23 29
e 23 196
e 23 198
e 23 339
e 23 341
e 24 188
e 24 200
e 24 220
e 25 27
e 25 71
e 25 88
e 25 192
e 25 338
e 26 186
e 26 191
e 27 71
e 27 173
e 27 338
e 28 34
e 28 72
e 28 172
e 28 194
e 28 197
e 28 244
e 28 246
e 28 247
e 28 250
e 28 338
e 28 361
e 29 30
e 29 32
e 29 34
e 29 172
e 29 198
e 29 341
e 29 361
e 30 31
e 30 32
e 30 186
e 31 32
e 31 33
e 31 189
e 32 33
e 32 360
e 32 361
e 32 396
e 33 226
e 33 263
e 33 396
e 34 172
e 34 361
e 35 38
e 35 44
e 35 290
e 35 376
e 36 44
e 36 48
e 36 54
e 36 288
e 36 290
e 36 371
e 37 41
e 37 42
e 37 43
e 37 45
e 37 46
e 37 50
e 37 113
e 37 138
e 37 142
e 38 159
e 38 376
e 39 40
e 39 43
e 39 45
e 39 48
e 39 113
e 39 150
e 39 225
e 39 258
e 40 43
e 40 45
e 41 42
e 41 50
e 41 54
e 41 114
e 42 47
e 42 114
e 42 139
e 42 142
e 43 45
e 43 113
e 44 48
e 44 290
e 45 46
e 45 258
e 46 138
e 46 258
e 46 355
e 46 357
e 47 49
e 47 54
e 47 114
e 47 137
e 47 139
e 48 50
e 48 54
e 48 113
e 49 54
e 49 137
e 49 303
e 49 306
e 49 371
e 50 54
e 50 113
e 51 53
e 51 152
e 51 153
e 52 121
e 52 140
e 52 151
e 52 152
e 52 153
e 52 154
e 52 155
e 52 274
e 52 398
e 53 152
e 53 153
e 53 212
e 53 362
e 53 372
e 54 114
e 54 371
e 55 292
e 55 304
e 55 367
e 55 390
e 56 81
e 56 158
e 56 167
e 56 179
e 57 80
e 57 98
e 57 106
e 57 110
e 57 158
e 57 166
e 57 167
e 57 183
e 57 322
e 58 79
e 58 80
e 58 85
e 58 111
e 58 161
e 58 166
e 58 168
e 58 181
e 59 109
e 59 163
e 59 164
e 59 180
e 60 86
e 60 97
e 60 158
e 60 163
e 60 166
e 60 179
e 60 315
e 60 316
e 61 155
e 61 184
e 61 274
e 61 346
e 61 349
e 62 63
e 62 67
e 62 126
e 62 129
e 62 363
e 62 401
e 62 404
e 63 67
e 63 363
e 64 78
e 64 169
e 64 343
e 65 169
e 65 231
e 65 232
e 65 347
e 65 351
e 66 69
e 66 128
e 66 222
e 66 363
e 67 68
e 67 129
e 67 363
e 68 70
e 68 129
e 68 363
e 69 70
e 69 126
e 69 127
e 69 128
e 69 363
e 70 126
e 70 129
e 70 363
e 71 88
e 71 173
e 71 185
e 71 199
e 71 338
e 72 194
e 73 74
e 73 174
e 73 201
e 73 340
e 74 75
e 74 188
e 74 195
e 74 201
e 75 188
e 75 201
e 76 171
e 76 275
e 76 278
e 76 279
e 76 405
e 77 78
e 77 271
e 77 279
e 77 343
e 77 358
e 77 359
e 78 232
e 78 271
e 78 343
e 79 111
e 79 166
e 79 316
e 80 85
e 80 106
e 80 160
e 80 166
e 81 98
e 81 158
e 81 167
e 82 107
e 82 157
e 83 110
e 83 157
e 83 183
e 84 85
e 84 105
e 84 160
e 84 175
e 84 289
e 85 160
e 85 175
e 85 181
e 86 112
e 86 163
e 86 315
e 86 336
e 87 94
e 87 220
e 87 221
e 87 324
e 88 89
e 88 93
e 88 199
e 88 202
e 88 203
e 88 204
e 88 324
e 88 327
e 88 331
e 89 93
e 89 96
e 89 204
e 89 331
e 89 406
e 90 91
e 90 94
e 90 95
e 90 202
e 90 203
e 90 204
e 90 207
e 90 208
e 91 94
e 91 208
e 91 221
e 91 222
e 92 95
e 92 205
e 92 208
e 92 222
e 92 363
e 93 204
e 94 202
e 94 221
e 94 324
e 95 118
e 95 207
e 95 208
e 95 363
e 95 406
e 96 204
e 96 207
e 96 406
e 97 107
e 97 163
e 97 179
e 97 180
e 97 321
e 98 158
e 98 167
e 99 100
e 99 101
e 99 102
e 99 103
e 99 161
e 99 181
e 100 101
e 100 102
e 100 181
e 101 181
e 102 103
e 102 181
e 103 165
e 103 176
e 103 317
e 104 165
e 104 318
e 104 319
e 104 320
e 104 336
e 105 160
e 105 289
e 105 311
e 105 370
e 105 377
e 106 160
e 106 177
e 106 178
e 106 322
e 107 157
e 107 179
e 107 321
e 108 109
e 108 163
e 108 336
e 109 163
e 109 164
e 109 336
e 110 159
e 110 178
e 110 183
e 110 322
e 111 168
e 111 316
e 111 336
e 112 315
e 112 316
e 112 336
e 115 117
e 115 365
e 115 382
e 115 384
e 115 390
e 116 117
e 116 380
e 116 381
e 116 382
e 117 382
e 118 207
e 118 406
e 119 134
e 119 140
e 119 141
e 119 143
e 119 148
e 119 154
e 119 369
e 120 121
e 120 135
e 120 136
e 120 142
e 120 146
e 120 239
e 121 134
e 121 136
e 121 140
e 121 143
e 121 238
e 121 239
e 121 270
e 121 274
e 122 216
e 122 329
e 122 330
e 122 331
e 122 334
e 122 406
e 123 124
e 123 125
e 123 130
e 123 131
e 123 132
e 123 146
e 124 125
e 124 146
e 124 147
e 125 141
e 125 145
e 125 147
e 126 127
e 126 129
e 126 404
e 127 128
e 127 219
e 127 359
e 127 404
e 127 405
e 128 219
e 128 222
e 130 131
e 130 141
e 130 240
e 131 132
e 131 236
e 131 240
e 131 242
e 132 135
e 132 146
e 132 237
e 132 241
e 133 134
e 133 141
e 133 144
e 133 240
e 133 241
e 134 141
e 134 143
e 134 144
e 134 238
e 135 144
e 135 146
e 135 237
e 135 239
e 136 138
e 136 142
e 136 170
e 136 270
e 136 337
e 137 139
e 137 145
e 137 298
e 137 306
e 137 369
e 138 142
e 138 337
e 138 357
e 139 142
e 139 145
e 139 146
e 139 147
e 140 143
e 140 154
e 141 145
e 141 240
e 141 369
e 142 146
e 144 237
e 144 238
e 144 239
e 144 241
e 145 147
e 145 369
e 146 147
e 148 210
e 148 369
e 148 375
e 149 150
e 149 225
e 149 258
e 149 342
e 149 354
e 149 396
e 150 225
e 150 258
e 151 152
e 151 154
e 151 293
e 151 294
e 151 372
e 152 153
e 152 372
e 153 362
e 153 398
e 155 274
e 155 346
e 155 398
e 156 362
e 156 363
e 156 395
e 156 399
e 156 401
e 156 402
e 157 167
e 157 179
e 157 183
e 158 166
e 158 179
e 159 177
e 159 178
e 159 376
e 160 177
e 160 311
e 161 162
e 161 165
e 161 168
e 161 181
e 162 165
e 162 168
e 162 336
e 163 180
e 163 336
e 164 336
e 165 176
e 165 320
e 165 336
e 167 179
e 167 182
e 167 183
e 168 336
e 169 232
e 169 343
e 169 351
e 169 352
e 170 243
e 170 270
e 170 280
e 170 337
e 170 345
e 170 356
e 171 276
e 171 278
e 171 279
e 171 343
e 172 198
e 172 338
e 173 185
e 173 338
e 174 201
e 174 340
e 175 176
e 175 181
e 175 289
e 175 291
e 175 317
e 176 291
e 176 310
e 176 317
e 176 318
e 176 320
e 177 178
e 177 287
e 177 311
e 177 376
e 178 322
e 180 321
e 181 317
e 182 183
e 184 346
e 184 349
e 184 350
e 185 338
e 186 189
e 186 190
e 186 341
e 187 196
e 187 339
e 187 340
e 188 195
e 188 200
e 188 201
e 189 190
e 189 226
e 190 226
e 191 223
e 191 325
e 191 358
e 192 196
e 192 338
e 194 199
e 194 246
e 194 338
e 195 200
e 195 339
e 195 340
e 196 198
e 196 338
e 196 339
e 198 338
e 199 246
e 199 327
e 199 338
e 200 339
e 202 203
e 202 324
e 203 204
e 204 207
e 205 222
e 205 363
e 206 291
e 206 308
e 206 373
e 206 378
e 207 406
e 208 222
e 209 210
e 209 212
e 209 292
e 209 295
e 209 372
e 210 292
e 210 295
e 210 375
e 211 287
e 211 300
e 211 309
e 211 311
e 211 312
e 211 376
e 211 377
e 212 292
e 212 362
e 212 366
e 212 372
e 213 214
e 213 301
e 213 369
e 213 374
e 214 298
e 214 300
e 214 309
e 214 369
e 214 374
e 215 327
e 215 330
e 215 334
e 216 327
e 216 331
e 216 334
e 217 218
e 217 327
e 217 335
e 218 327
e 218 328
e 218 329
e 218 330
e 218 333
e 218 335
e 219 222
e 219 223
e 219 358
e 219 359
e 220 221
e 220 223
e 221 222
e 221 223
e 222 363
e 223 358
e 224 228
e 224 229
e 224 230
e 224 262
e 224 263
e 224 264
e 224 265
e 224 271
e 224 326
e 225 396
e 226 262
e 226 263
e 226 325
e 227 228
e 227 230
e 227 231
e 227 233
e 228 229
e 228 230
e 228 233
e 228 326
e 229 230
e 230 231
e 230 271
e 231 232
e 231 233
e 231 266
e 231 271
e 231 347
e 232 271
e 233 266
e 233 326
e 234 235
e 234 354
e 234 355
e 234 356
e 235 355
e 235 356
e 236 240
e 236 241
e 236 242
e 237 241
e 238 239
e 240 241
e 240 242
e 243 272
e 243 277
e 243 280
e 243 344
e 243 345
e 244 245
e 244 246
e 244 247
e 245 246
e 245 247
e 245 283
e 246 282
e 246 283
e 246 327
e 247 250
e 247 259
e 247 261
e 247 282
e 247 283
e 247 286
e 248 251
e 248 252
e 248 257
e 249 253
e 249 256
e 249 260
e 249 268
e 249 285
e 250 251
e 250 252
e 250 259
e 250 361
e 250 396
e 252 256
e 252 257
e 252 259
e 252 260
e 252 267
e 252 284
e 252 285
e 253 254
e 253 255
e 253 260
e 253 261
e 253 268
e 254 255
e 254 261
e 254 286
e 255 268
e 255 286
e 256 260
e 256 285
e 257 284
e 258 354
e 258 355
e 259 261
e 260 261
e 261 286
e 262 263
e 262 265
e 262 325
e 263 264
e 263 396
e 264 323
e 264 326
e 264 342
e 264 396
e 265 271
e 265 325
e 265 358
e 266 272
e 266 280
e 266 323
e 266 326
e 266 347
e 266 354
e 266 356
e 267 268
e 267 285
e 268 285
e 268 286
e 269 273
e 269 275
e 269 277
e 269 278
e 269 394
e 270 274
e 270 344
e 270 345
e 270 349
e 271 358
e 272 276
e 272 277
e 272 280
e 272 347
e 273 276
e 273 277
e 273 278
e 274 349
e 275 278
e 275 281
e 275 353
e 275 394
e 275 405
e 276 277
e 276 348
e 276 351
e 277 281
e 277 344
e 277 349
e 277 350
e 277 394
e 279 343
e 279 359
e 280 356
e 281 350
e 281 353
e 281 394
e 282 283
e 287 311
e 287 376
e 288 290
e 288 302
e 288 371
e 289 291
e 289 296
e 289 305
e 289 370
e 290 302
e 290 376
e 291 296
e 291 299
e 291 308
e 291 310
e 292 301
e 292 304
e 292 366
e 292 367
e 292 375
e 293 294
e 293 314
e 293 372
e 294 295
e 294 314
e 295 314
e 295 372
e 296 299
e 296 305
e 296 387
e 297 301
e 297 304
e 297 368
e 297 374
e 297 379
e 297 388
e 297 391
e 298 306
e 298 309
e 298 369
e 299 393
e 300 309
e 300 312
e 300 374
e 301 304
e 301 374
e 302 303
e 302 376
e 303 306
e 303 307
e 303 371
e 303 376
e 304 389
e 304 390
e 304 391
e 305 313
e 305 387
e 305 392
e 306 307
e 306 309
e 307 309
e 307 376
e 308 310
e 308 318
e 308 336
e 308 366
e 308 373
e 309 376
e 310 318
e 311 377
e 312 364
e 312 374
e 312 377
e 313 368
e 313 392
e 314 372
e 315 316
e 316 336
e 318 319
e 318 320
e 318 336
e 319 320
e 323 326
e 323 342
e 323 354
e 325 358
e 327 331
e 327 334
e 327 335
e 328 333
e 329 330
e 329 332
e 329 333
e 330 334
e 331 406
e 332 333
e 336 366
e 337 357
e 339 340
e 339 341
e 342 354
e 342 396
e 343 351
e 344 345
e 344 349
e 346 350
e 346 353
e 346 398
e 346 403
e 346 405
e 347 348
e 347 351
e 348 351
e 349 350
e 350 353
e 351 352
e 353 405
e 354 355
e 354 356
e 355 356
e 355 357
e 356 357
e 358 359
e 359 405
e 360 361
e 360 396
e 361 396
e 362 366
e 362 395
e 362 398
e 363 401
e 363 406
e 364 368
e 364 374
e 364 377
e 365 367
e 366 367
e 366 373
e 367 390
e 368 374
e 368 379
e 368 392
e 369 375
e 370 377
e 373 378
e 378 393
e 379 388
e 379 392
e 381 382
e 381 387
e 382 383
e 382 384
e 382 387
e 383 384
e 383 385
e 383 386
e 383 387
e 384 385
e 384 389
e 384 390
e 385 386
e 385 388
e 385 389
e 386 387
e 386 388
e 386 392
e 387 392
e 388 389
e 388 391
e 388 392
e 389 390
e 389 391
e 395 398
e 395 399
e 396 397
e 398 399
e 398 403
e 399 402
e 399 403
e 400 401
e 400 403
e 400 404
e 400 405
e 401 402
e 401 403
e 401 404
e 402 403
e 403 405
e 404 405
c k 2
